n_machines = 10;
n_resources = 12;
n_jobs = 154;
horizon = 820;
LB = 110;
n_jobs_per_resource = [10, 17, 18, 4, 11, 15, 14, 6, 19, 17, 7, 16];
duration = [4, 1, 1, 3, 5, 1, 4, 3, 8, 6, 1, 8, 9, 8, 7, 2, 4, 6, 8, 1, 3, 1, 1, 9, 8, 7, 3, 3, 2, 2, 3, 7, 8, 9, 6, 9, 8, 3, 8, 7, 6, 4, 7, 5, 5, 4, 5, 1, 4, 4, 4, 6, 6, 4, 9, 4, 6, 7, 5, 8, 3, 5, 1, 1, 4, 8, 7, 5, 2, 1, 2, 8, 6, 7, 5, 8, 6, 7, 5, 4, 3, 8, 7, 9, 2, 5, 4, 7, 9, 1, 7, 4, 9, 5, 8, 5, 1, 7, 7, 6, 4, 9, 8, 6, 5, 8, 9, 2, 1, 8, 6, 8, 7, 2, 2, 2, 7, 4, 5, 4, 5, 4, 3, 9, 2, 6, 6, 7, 4, 9, 4, 4, 3, 9, 7, 2, 1, 8, 9, 9, 8, 9, 6, 7, 5, 6, 4, 6, 9, 3, 3, 8, 9, 9]